 vasp.6.4.2 20Jul23 (build Sep 16 2024 10:59:38) complex

 executed on             LinuxIFC date 2025.02.07  13:07:07

 INCAR:
   SYSTEM = CaS HSE06
   ENCUT = 500
   ISMEAR = 0
   SIGMA = 0.01
   LHFCALC = T
   HFSCREEN = 0.2
   ALGO = Damped
   TIME = 0.4
   LREAL = .FALSE.
   NCORE = 8

 POTCAR:    PAW_PBE Ca_pv 06Sep2000
 POTCAR:    PAW_PBE S 06Sep2000
 POTCAR:    PAW_PBE Ca_pv 06Sep2000
   VRHFIN =Ca: p6s2d0.01

   TITEL  = PAW_PBE Ca_pv 06Sep2000
   POMASS =   40.078; ZVAL   =    8.000    mass and valenz
   ENMAX  =  119.559; ENMIN  =   89.670 eV

   TITEL  = PAW_PBE S 06Sep2000
   POMASS =   32.066; ZVAL   =    6.000    mass and valenz
   ENMAX  =  258.689; ENMIN  =  194.016 eV

  PAW_PBE Ca_pv 06Sep2000               :
  PAW_PBE S 06Sep2000                   :

 POSCAR: CaS Fm-3m (No.225)
  positions in direct lattice
  velocities in cartesian coordinates
 exchange correlation table for  LEXCH =        8
   RHO(1)=    0.500       N(1)  =     2000
   RHO(2)=  100.500       N(2)  =     4000

 VTST: version 4.1, (05/19/21)

 CHAIN: initializing optimizer

 OPT: Using VASP Dynamics algorithm
 CHAIN: Read ICHAIN            0

 POSCAR: CaS Fm-3m (No.225)
  positions in direct lattice
  velocities in cartesian coordinates

 ion  position               nearest neighbor table
   1  0.000  0.000  0.000-   2 2.86   2 2.86   2 2.86   2 2.86   2 2.86   2 2.86
   2  0.500  0.500  0.500-   1 2.86   1 2.86   1 2.86   1 2.86   1 2.86   1 2.86

  LATTYP: Found a face centered cubic cell.
 ALAT       =     5.7162404813

  Lattice vectors:

 A1 = (   3.5004680000,   0.0000000000,   2.0209960000)
 A2 = (   1.1668230000,   3.3002730000,   2.0209960000)
 A3 = (   0.0000000000,   0.0000000000,   4.0419920000)

Analysis of symmetry for initial positions (statically):
 Subroutine PRICEL returns:
 Original cell was already a primitive cell.

 Routine SETGRP: Setting up the symmetry group for a
 face centered cubic supercell.

 Subroutine GETGRP returns: Found 48 space group operations
 (whereof 48 operations were pure point group operations)
 out of a pool of 48 trial point group operations.

The static configuration has the point symmetry O_h .

Analysis of symmetry for dynamics (positions and initial velocities):
 Subroutine PRICEL returns:
 Original cell was already a primitive cell.

 Routine SETGRP: Setting up the symmetry group for a
 face centered cubic supercell.

 Subroutine GETGRP returns: Found 48 space group operations
 (whereof 48 operations were pure point group operations)
 out of a pool of 48 trial point group operations.

The dynamic configuration has the point symmetry O_h .

 Subroutine INISYM returns: Found 48 space group operations
 (whereof 48 operations are pure point group operations),
 and found     1 'primitive' translations

                                     Primitive cell

  volume of cell :      46.6951

  direct lattice vectors                    reciprocal lattice vectors
     3.500468000  0.000000000  2.020996000     0.285676087 -0.101001774  0.000000000
     1.166823000  3.300273000  2.020996000     0.000000000  0.303005236  0.000000000
     0.000000000  0.000000000  4.041992000    -0.142838043 -0.101001731  0.247402766

  length of vectors
     4.041992213  4.041992407  4.041992000     0.303005256  0.303005236  0.303005255

  position of ions in fractional coordinates (direct lattice)
     0.000000000  0.000000000  0.000000000
     0.500000000  0.500000000  0.500000000

  ion indices of the primitive-cell ions
   primitive index   ion index
                 1           1
                 2           2

 KPOINTS: Explicit k-points list for band structur

Read explicit list of k-points.

 Found     53 k-points:

 Following reciprocal coordinates:
            Coordinates               Weight
  0.000000  0.000000  0.000000      0.004630
  0.166667  0.000000  0.000000      0.037037
  0.333333  0.000000  0.000000      0.037037
  0.500000  0.000000  0.000000      0.018519
  0.166667  0.166667  0.000000      0.027778
  0.333333  0.166667  0.000000      0.111111
  0.500000  0.166667  0.000000      0.111111
 -0.333333  0.166667  0.000000      0.111111
 -0.166667  0.166667  0.000000      0.055556
  0.333333  0.333333  0.000000      0.027778
  0.500000  0.333333  0.000000      0.111111
 -0.333333  0.333333  0.000000      0.055556
  0.500000  0.500000  0.000000      0.013889
  0.500000  0.333333  0.166667      0.111111
 -0.333333  0.333333  0.166667      0.111111
 -0.333333  0.500000  0.166667      0.055556
  0.500000  0.500000  0.500000      0.000000
  0.500000  0.472200  0.527800      0.000000
  0.500000  0.444400  0.555600      0.000000
  0.500000  0.416700  0.583300      0.000000
  0.500000  0.388900  0.611100      0.000000
  0.500000  0.361100  0.638900      0.000000
  0.500000  0.333300  0.666700      0.000000
  0.500000  0.305600  0.694400      0.000000
  0.500000  0.277800  0.722200      0.000000
  0.500000  0.250000  0.750000      0.000000
  0.500000  0.222200  0.722200      0.000000
  0.500000  0.194400  0.694400      0.000000
  0.500000  0.166700  0.666700      0.000000
  0.500000  0.138900  0.638900      0.000000
  0.500000  0.111100  0.611100      0.000000
  0.500000  0.083300  0.583300      0.000000
  0.500000  0.055600  0.555600      0.000000
  0.500000  0.027800  0.527800      0.000000
  0.500000  0.000000  0.500000      0.000000
  0.444400  0.000000  0.444400      0.000000
  0.388900  0.000000  0.388900      0.000000
  0.333300  0.000000  0.333300      0.000000
  0.277800  0.000000  0.277800      0.000000
  0.222200  0.000000  0.222200      0.000000
  0.166700  0.000000  0.166700      0.000000
  0.111100  0.000000  0.111100      0.000000
  0.055600  0.000000  0.055600      0.000000
  0.000000  0.000000  0.000000      0.000000
  0.055600  0.055600  0.055600      0.000000
  0.111100  0.111100  0.111100      0.000000
  0.166700  0.166700  0.166700      0.000000
  0.222200  0.222200  0.222200      0.000000
  0.277800  0.277800  0.277800      0.000000
  0.333300  0.333300  0.333300      0.000000
  0.388900  0.388900  0.388900      0.000000
  0.444400  0.444400  0.444400      0.000000
  0.500000  0.500000  0.500000      0.000000

 Following cartesian coordinates:
            Coordinates               Weight
  0.000000  0.000000  0.000000      0.004630
  0.047613 -0.016834  0.000000      0.037037
  0.095225 -0.033667  0.000000      0.037037
  0.142838 -0.050501  0.000000      0.018519
  0.047613  0.033667  0.000000      0.027778
  0.095225  0.016834  0.000000      0.111111
  0.142838 -0.000000  0.000000      0.111111
 -0.095225  0.084168  0.000000      0.111111
 -0.047613  0.067335  0.000000      0.055556
  0.095225  0.067334  0.000000      0.027778
  0.142838  0.050501  0.000000      0.111111
 -0.095225  0.134669  0.000000      0.055556
  0.142838  0.101002  0.000000      0.013889
  0.119032  0.033667  0.041234      0.111111
 -0.119032  0.117835  0.041234      0.111111
 -0.119032  0.168336  0.041234      0.055556
  0.071419  0.050501  0.123701      0.000000
  0.067448  0.039269  0.130579      0.000000
  0.063477  0.028038  0.137457      0.000000
  0.059521  0.016847  0.144310      0.000000
  0.055550  0.005616  0.151188      0.000000
  0.051579 -0.005616  0.158066      0.000000
  0.047608 -0.016847  0.164943      0.000000
  0.043651 -0.028038  0.171796      0.000000
  0.039680 -0.039269  0.178674      0.000000
  0.035710 -0.050501  0.185552      0.000000
  0.039680 -0.056117  0.178674      0.000000
  0.043651 -0.061732  0.171796      0.000000
  0.047608 -0.067328  0.164943      0.000000
  0.051579 -0.072943  0.158066      0.000000
  0.055550 -0.078559  0.151188      0.000000
  0.059521 -0.084175  0.144310      0.000000
  0.063477 -0.089770  0.137457      0.000000
  0.067448 -0.095386  0.130579      0.000000
  0.071419 -0.101002  0.123701      0.000000
  0.063477 -0.089770  0.109946      0.000000
  0.055550 -0.078559  0.096215      0.000000
  0.047608 -0.067328  0.082459      0.000000
  0.039680 -0.056117  0.068728      0.000000
  0.031739 -0.044885  0.054973      0.000000
  0.023811 -0.033674  0.041242      0.000000
  0.015869 -0.022443  0.027486      0.000000
  0.007942 -0.011231  0.013756      0.000000
  0.000000  0.000000  0.000000      0.000000
  0.007942  0.005616  0.013756      0.000000
  0.015869  0.011221  0.027486      0.000000
  0.023811  0.016837  0.041242      0.000000
  0.031739  0.022443  0.054973      0.000000
  0.039680  0.028058  0.068728      0.000000
  0.047608  0.033664  0.082459      0.000000
  0.055550  0.039280  0.096215      0.000000
  0.063477  0.044885  0.109946      0.000000
  0.071419  0.050501  0.123701      0.000000

 Subroutine IBZKPT_HF returns following result:

 Found    253 k-points in 1st BZ
 the following    253 k-points will be used (e.g. in the exchange kernel)
 Following reciprocal coordinates:   # in IRBZ
  0.000000  0.000000  0.000000    0.00462963   1 t-inv F
  0.166667  0.000000  0.000000    0.00462963   2 t-inv F
  0.333333  0.000000  0.000000    0.00462963   3 t-inv F
  0.500000  0.000000  0.000000    0.00462963   4 t-inv F
  0.166667  0.166667  0.000000    0.00462963   5 t-inv F
  0.333333  0.166667  0.000000    0.00462963   6 t-inv F
  0.500000  0.166667  0.000000    0.00462963   7 t-inv F
 -0.333333  0.166667  0.000000    0.00462963   8 t-inv F
 -0.166667  0.166667  0.000000    0.00462963   9 t-inv F
  0.333333  0.333333  0.000000    0.00462963  10 t-inv F
  0.500000  0.333333  0.000000    0.00462963  11 t-inv F
 -0.333333  0.333333  0.000000    0.00462963  12 t-inv F
  0.500000  0.500000  0.000000    0.00462963  13 t-inv F
  0.500000  0.333333  0.166667    0.00462963  14 t-inv F
 -0.333333  0.333333  0.166667    0.00462963  15 t-inv F
 -0.333333  0.500000  0.166667    0.00462963  16 t-inv F
  0.500000  0.500000  0.500000    0.00000000  17 t-inv F
  0.500000  0.472200  0.527800    0.00000000  18 t-inv F
  0.500000  0.444400  0.555600    0.00000000  19 t-inv F
  0.500000  0.416700  0.583300    0.00000000  20 t-inv F
  0.500000  0.388900  0.611100    0.00000000  21 t-inv F
  0.500000  0.361100  0.638900    0.00000000  22 t-inv F
  0.500000  0.333300  0.666700    0.00000000  23 t-inv F
  0.500000  0.305600  0.694400    0.00000000  24 t-inv F
  0.500000  0.277800  0.722200    0.00000000  25 t-inv F
  0.500000  0.250000  0.750000    0.00000000  26 t-inv F
  0.500000  0.222200  0.722200    0.00000000  27 t-inv F
  0.500000  0.194400  0.694400    0.00000000  28 t-inv F
  0.500000  0.166700  0.666700    0.00000000  29 t-inv F
  0.500000  0.138900  0.638900    0.00000000  30 t-inv F
  0.500000  0.111100  0.611100    0.00000000  31 t-inv F
  0.500000  0.083300  0.583300    0.00000000  32 t-inv F
  0.500000  0.055600  0.555600    0.00000000  33 t-inv F
  0.500000  0.027800  0.527800    0.00000000  34 t-inv F
  0.500000  0.000000  0.500000    0.00000000  35 t-inv F
  0.444400  0.000000  0.444400    0.00000000  36 t-inv F
  0.388900  0.000000  0.388900    0.00000000  37 t-inv F
  0.333300  0.000000  0.333300    0.00000000  38 t-inv F
  0.277800  0.000000  0.277800    0.00000000  39 t-inv F
  0.222200  0.000000  0.222200    0.00000000  40 t-inv F
  0.166700  0.000000  0.166700    0.00000000  41 t-inv F
[...]
 use gradient corrections
 use of overlap-Matrix (Vanderbilt PP)
 Gauss-broadening in eV      SIGMA  =   0.01

  energy-cutoff  :      500.00
  volume of cell :       46.70
      direct lattice vectors                 reciprocal lattice vectors
     3.500468000  0.000000000  2.020996000     0.285676087 -0.101001774  0.000000000
     1.166823000  3.300273000  2.020996000     0.000000000  0.303005236  0.000000000
     0.000000000  0.000000000  4.041992000    -0.142838043 -0.101001731  0.247402766

[...]

 k-points in units of 2pi/SCALE and weight: Explicit k-points list for band structur
   0.00000000  0.00000000  0.00000000       0.005
   0.04761268 -0.01683363  0.00000000       0.037
   0.09522536 -0.03366726  0.00000000       0.037
   0.14283804 -0.05050089  0.00000000       0.019
   0.04761268  0.03366724  0.00000000       0.028
   0.09522536  0.01683361  0.00000000       0.111
   0.14283804 -0.00000001  0.00000000       0.111
  -0.09522536  0.08416813  0.00000000       0.111
  -0.04761268  0.06733450  0.00000000       0.056
   0.09522536  0.06733449  0.00000000       0.028
   0.14283804  0.05050086  0.00000000       0.111
  -0.09522536  0.13466900  0.00000000       0.056
   0.14283804  0.10100173  0.00000000       0.014
   0.11903170  0.03366724  0.04123379       0.111
  -0.11903170  0.11783538  0.04123379       0.111
  -0.11903170  0.16833625  0.04123379       0.056
   0.07141902  0.05050087  0.12370138       0.000
   0.06744812  0.03926947  0.13057918       0.000
   0.06347723  0.02803808  0.13745698       0.000
   0.05952061  0.01684709  0.14431003       0.000
   0.05554972  0.00561569  0.15118783       0.000
   0.05157882 -0.00561570  0.15806563       0.000
   0.04760792 -0.01684710  0.16494342       0.000
   0.04365131 -0.02803809  0.17179648       0.000
   0.03968041 -0.03926948  0.17867428       0.000
   0.03570951 -0.05050088  0.18555207       0.000
   0.03968041 -0.05611657  0.17867428       0.000
   0.04365131 -0.06173227  0.17179648       0.000
   0.04760792 -0.06732777  0.16494342       0.000
   0.05157882 -0.07294347  0.15806563       0.000
   0.05554972 -0.07855916  0.15118783       0.000
   0.05952061 -0.08417486  0.14431003       0.000
   0.06347723 -0.08977036  0.13745698       0.000
   0.06744812 -0.09538606  0.13057918       0.000
   0.07141902 -0.10100175  0.12370138       0.000
   0.06347723 -0.08977036  0.10994579       0.000
   0.05554972 -0.07855916  0.09621494       0.000
   0.04760792 -0.06732777  0.08245934       0.000
   0.03968041 -0.05611657  0.06872849       0.000
   0.03173861 -0.04488518  0.05497289       0.000
   0.02381110 -0.03367398  0.04124204       0.000
   0.01586931 -0.02244259  0.02748645       0.000
   0.00794180 -0.01123139  0.01375559       0.000
   0.00000000  0.00000000  0.00000000       0.000
   0.00794180  0.00561570  0.01375559       0.000
   0.01586931  0.01122129  0.02748645       0.000
   0.02381110  0.01683699  0.04124204       0.000
   0.03173861  0.02244258  0.05497289       0.000
   0.03968041  0.02805828  0.06872849       0.000
   0.04760792  0.03366388  0.08245934       0.000
   0.05554972  0.03927957  0.09621494       0.000
   0.06347723  0.04488517  0.10994579       0.000
   0.07141902  0.05050087  0.12370138       0.000

 k-points in reciprocal lattice and weights: Explicit k-points list for band structur
   0.00000000  0.00000000  0.00000000       0.005
   0.16666667  0.00000000  0.00000000       0.037
   0.33333333  0.00000000  0.00000000       0.037
   0.50000000  0.00000000  0.00000000       0.019
   0.16666667  0.16666667  0.00000000       0.028
   0.33333333  0.16666667  0.00000000       0.111
   0.50000000  0.16666667  0.00000000       0.111
  -0.33333333  0.16666667  0.00000000       0.111
  -0.16666667  0.16666667  0.00000000       0.056
   0.33333333  0.33333333  0.00000000       0.028
   0.50000000  0.33333333  0.00000000       0.111
  -0.33333333  0.33333333  0.00000000       0.056
   0.50000000  0.50000000  0.00000000       0.014
   0.50000000  0.33333333  0.16666667       0.111
  -0.33333333  0.33333333  0.16666667       0.111
  -0.33333333  0.50000000  0.16666667       0.056
   0.50000000  0.50000000  0.50000000       0.000
   0.50000000  0.47220000  0.52780000       0.000
   0.50000000  0.44440000  0.55560000       0.000
   0.50000000  0.41670000  0.58330000       0.000
   0.50000000  0.38890000  0.61110000       0.000
   0.50000000  0.36110000  0.63890000       0.000
   0.50000000  0.33330000  0.66670000       0.000
   0.50000000  0.30560000  0.69440000       0.000
   0.50000000  0.27780000  0.72220000       0.000
   0.50000000  0.25000000  0.75000000       0.000
   0.50000000  0.22220000  0.72220000       0.000
   0.50000000  0.19440000  0.69440000       0.000
   0.50000000  0.16670000  0.66670000       0.000
   0.50000000  0.13890000  0.63890000       0.000
   0.50000000  0.11110000  0.61110000       0.000
   0.50000000  0.08330000  0.58330000       0.000
   0.50000000  0.05560000  0.55560000       0.000
   0.50000000  0.02780000  0.52780000       0.000
   0.50000000  0.00000000  0.50000000       0.000
   0.44440000  0.00000000  0.44440000       0.000
   0.38890000  0.00000000  0.38890000       0.000
   0.33330000  0.00000000  0.33330000       0.000
   0.27780000  0.00000000  0.27780000       0.000
   0.22220000  0.00000000  0.22220000       0.000
   0.16670000  0.00000000  0.16670000       0.000
   0.11110000  0.00000000  0.11110000       0.000
   0.05560000  0.00000000  0.05560000       0.000
   0.00000000  0.00000000  0.00000000       0.000
   0.05560000  0.05560000  0.05560000       0.000
   0.11110000  0.11110000  0.11110000       0.000
   0.16670000  0.16670000  0.16670000       0.000
   0.22220000  0.22220000  0.22220000       0.000
   0.27780000  0.27780000  0.27780000       0.000
   0.33330000  0.33330000  0.33330000       0.000
   0.38890000  0.38890000  0.38890000       0.000
   0.44440000  0.44440000  0.44440000       0.000
   0.50000000  0.50000000  0.50000000       0.000

 position of ions in fractional coordinates (direct lattice)
   0.00000000  0.00000000  0.00000000
   0.50000000  0.50000000  0.50000000

 position of ions in cartesian coordinates  (Angst):
   0.00000000  0.00000000  0.00000000
   2.33364550  1.65013650  4.04199200

 k-point   1 :   0.0000 0.0000 0.0000  plane waves:    1243
 k-point   2 :   0.1667 0.0000 0.0000  plane waves:    1197
 k-point   3 :   0.3333 0.0000 0.0000  plane waves:    1176
 k-point   4 :   0.5000 0.0000 0.0000  plane waves:    1170
 k-point   5 :   0.1667 0.1667 0.0000  plane waves:    1187
 k-point   6 :   0.3333 0.1667 0.0000  plane waves:    1190
 k-point   7 :   0.5000 0.1667 0.0000  plane waves:    1177
 k-point   8 :  -0.3333 0.1667 0.0000  plane waves:    1181
 k-point   9 :  -0.1667 0.1667 0.0000  plane waves:    1193
 k-point  10 :   0.3333 0.3333 0.0000  plane waves:    1186
 k-point  11 :   0.5000 0.3333 0.0000  plane waves:    1185
 k-point  12 :  -0.3333 0.3333 0.0000  plane waves:    1182
 k-point  13 :   0.5000 0.5000 0.0000  plane waves:    1162
 k-point  14 :   0.5000 0.3333 0.1667  plane waves:    1192
 k-point  15 :  -0.3333 0.3333 0.1667  plane waves:    1186
 k-point  16 :  -0.3333 0.5000 0.1667  plane waves:    1182
 k-point  17 :   0.5000 0.5000 0.5000  plane waves:    1170
 k-point  18 :   0.5000 0.4722 0.5278  plane waves:    1182
 k-point  19 :   0.5000 0.4444 0.5556  plane waves:    1188
 k-point  20 :   0.5000 0.4167 0.5833  plane waves:    1184
 k-point  21 :   0.5000 0.3889 0.6111  plane waves:    1182
 k-point  22 :   0.5000 0.3611 0.6389  plane waves:    1184
 k-point  23 :   0.5000 0.3333 0.6667  plane waves:    1186
 k-point  24 :   0.5000 0.3056 0.6944  plane waves:    1188
 k-point  25 :   0.5000 0.2778 0.7222  plane waves:    1188
 k-point  26 :   0.5000 0.2500 0.7500  plane waves:    1176
 k-point  27 :   0.5000 0.2222 0.7222  plane waves:    1184
 k-point  28 :   0.5000 0.1944 0.6944  plane waves:    1180
 k-point  29 :   0.5000 0.1667 0.6667  plane waves:    1182
 k-point  30 :   0.5000 0.1389 0.6389  plane waves:    1180
 k-point  31 :   0.5000 0.1111 0.6111  plane waves:    1182
 k-point  32 :   0.5000 0.0833 0.5833  plane waves:    1182
 k-point  33 :   0.5000 0.0556 0.5556  plane waves:    1180
 k-point  34 :   0.5000 0.0278 0.5278  plane waves:    1172
 k-point  35 :   0.5000 0.0000 0.5000  plane waves:    1162
 k-point  36 :   0.4444 0.0000 0.4444  plane waves:    1182
 k-point  37 :   0.3889 0.0000 0.3889  plane waves:    1190
 k-point  38 :   0.3333 0.0000 0.3333  plane waves:    1186
 k-point  39 :   0.2778 0.0000 0.2778  plane waves:    1190
 k-point  40 :   0.2222 0.0000 0.2222  plane waves:    1190
 k-point  41 :   0.1667 0.0000 0.1667  plane waves:    1187
 k-point  42 :   0.1111 0.0000 0.1111  plane waves:    1203
 k-point  43 :   0.0556 0.0000 0.0556  plane waves:    1227
 k-point  44 :   0.0000 0.0000 0.0000  plane waves:    1243
 k-point  45 :   0.0556 0.0556 0.0556  plane waves:    1218
 k-point  46 :   0.1111 0.1111 0.1111  plane waves:    1209
 k-point  47 :   0.1667 0.1667 0.1667  plane waves:    1197
 k-point  48 :   0.2222 0.2222 0.2222  plane waves:    1197
 k-point  49 :   0.2778 0.2778 0.2778  plane waves:    1182
 k-point  50 :   0.3333 0.3333 0.3333  plane waves:    1176
 k-point  51 :   0.3889 0.3889 0.3889  plane waves:    1176
 k-point  52 :   0.4444 0.4444 0.4444  plane waves:    1182
 k-point  53 :   0.5000 0.5000 0.5000  plane waves:    1170

 maximum and minimum number of plane-waves per node :       163      123

 maximum number of plane-waves:      1243
 maximum index in each direction:
   IXMAX=    7   IYMAX=    7   IZMAX=    7
   IXMIN=   -7   IYMIN=   -7   IZMIN=   -8

 parallel 3D FFT for wavefunctions:
    minimum data exchange during FFTs selected (reduces bandwidth)
 parallel 3D FFT for charge:
    minimum data exchange during FFTs selected (reduces bandwidth)

 Radii for the augmentation spheres in the non-local exchange
 for species   1 augmentation radius   1.582 (default was   1.266)
       energy cutoff for augmentation   2000.0
 for species   2 augmentation radius   1.212 (default was   0.970)
       energy cutoff for augmentation   2000.0

 real space projection operators:
  max/ min on nodes  :        147.01        127.52

 Maximum index for augmentation-charges in exchange          649
  SETUP_FOCK is finished

 Broyden mixing: mesh for mixing (old mesh)
   NGX = 15   NGY = 15   NGZ = 15
  (NGX  = 48   NGY  = 48   NGZ  = 48)
  gives a total of   3375 points

 initial charge density was supplied:
 charge density of overlapping atoms calculated
 number of electron      14.0000000 magnetization
 keeping initial charge density in first step

 Maximum index for augmentation-charges          823 (set IRDMAX)

 First call to EWALD:  gamma=   0.492
 Maximum number of real-space cells 3x 3x 3
 Maximum number of reciprocal cells 3x 3x 3

--------------------------------------- Ionic step        1  -------------------------------------------

--------------------------------------- Iteration      1(   1)  ---------------------------------------

 eigenvalue-minimisations  :  1536
 total energy-change (2. order) :-0.2767403E+03  (-0.5921688E+03)
 number of electron      14.0000000 magnetization
 augmentation part       14.0000000 magnetization

 Free energy of the ion-electron system (eV)
  alpha Z        PSCENC =        35.24757897
  Ewald energy   TEWEN  =      -709.25363539
  -Hartree energ DENC   =      -141.31692778
  -exchange      EXHF   =         0.00000000
  -V(xc)+E(xc)   XCENC  =        28.24480740
  PAW double counting   =       656.04370375    -1002.91003596
  entropy T*S    EENTRO =        -0.00057263
  eigenvalues    EBANDS =       -30.61139549
  atomic energy  EATOM  =       887.81620855
  free energy    TOTEN  =      -276.74026858 eV

  energy without entropy =     -276.73969595  energy(sigma->0) =     -276.73998226
  exchange ACFDT corr.  =         0.00000000  see jH, gK, PRB 81, 115126

[...]

 eigenvalue-minimisations  :  2544
 total energy-change (2. order) : 0.3673073E+03  (-0.1663265E+01)
 number of electron      14.0000002 magnetization
 augmentation part        3.7714163 magnetization

[...]

 eigenvalue-minimisations  :     0
 total energy-change (2. order) : 0.3563861E+00  (-0.5353790E+00)
 number of electron      14.0000003 magnetization
 augmentation part        3.7796364 magnetization

[...]

--------------------------------------- Iteration      1(  18)  ---------------------------------------

 eigenvalue-minimisations  :     0
 total energy-change (2. order) :-0.4065562E-04  (-0.5503752E-04)
 number of electron      14.0000003 magnetization
 augmentation part        3.8081184 magnetization

 Free energy of the ion-electron system (eV)
  alpha Z        PSCENC =        35.24757897
  Ewald energy   TEWEN  =      -709.25363539
  -Hartree energ DENC   =      -149.09252213
  -exchange      EXHF   =        28.17469926
  -V(xc)+E(xc)   XCENC  =        21.88763419
  PAW double counting   =      1127.30723278    -1120.93051892
  entropy T*S    EENTRO =        -0.00000000
  eigenvalues    EBANDS =      -132.84643249
  atomic energy  EATOM  =       887.81620855
  free energy    TOTEN  =       -11.69166576 eV

  energy without entropy =      -11.69166576  energy(sigma->0) =      -11.69166576
  exchange ACFDT corr.  =         0.00000000  see jH, gK, PRB 81, 115126

  average scaling for gradient   1.2783

 average (electrostatic) potential at core
  the test charge radii are     1.2658  0.9698
  (the norm of the test charge is              1.0000)
       1 -42.1154       2 -82.9853

 E-fermi :   2.3407     XC(G=0):  -7.6709     alpha+bet :-11.1173

 Fermi energy:         2.3407234048

 k-point     1 :       0.0000    0.0000    0.0000
  band No.  band energies     occupation
      1     -19.5115      2.00000
      2     -19.5115      2.00000
      3     -19.5115      2.00000
      4     -10.2679      2.00000
      5       2.2119      2.00000
      6       2.2119      2.00000
      7       2.2120      2.00000
      8       7.3279      0.00000
      9       7.7145      0.00000
     10       7.7152      0.00000
     11       7.7806      0.00000
     12       8.3854      0.00000

[...]

 k-point    53 :       0.5000    0.5000    0.5000
  band No.  band energies     occupation
      1     -19.6877      2.00000
      2     -19.5222      2.00000
      3     -19.5222      2.00000
      4      -9.3824      2.00000
      5      -1.1348      2.00000
      6       1.0193      2.00000
      7       1.0193      2.00000
      8       8.3760      0.00000
      9       9.8571      0.00000
     10      10.1015      0.00000
     11      10.1018      0.00000
     12      12.1755      0.00000

 soft charge-density along one line, spin component           1
         0         1         2         3         4         5         6         7         8         9
 total charge-density along one line

------------------------ aborting loop because EDIFF is reached ----------------------------------------

 VOLUME and BASIS-vectors are now :
  energy-cutoff  :      500.00
  volume of cell :       46.70
      direct lattice vectors                 reciprocal lattice vectors
     3.500468000  0.000000000  2.020996000     0.285676087 -0.101001774  0.000000000
     1.166823000  3.300273000  2.020996000     0.000000000  0.303005236  0.000000000
     0.000000000  0.000000000  4.041992000    -0.142838043 -0.101001731  0.247402766

  length of vectors
     4.041992213  4.041992407  4.041992000     0.303005256  0.303005236  0.303005255

 FORCES acting on ions:
    Electron-Ion                     Ewald-Force                    Non-Local-Force
   0.392E-04 -.965E-04 0.820E-04   -.133E-14 -.827E-15 -.790E-15   -.991E-20 -.118E-20 0.195E-19
   -.281E-03 0.557E-03 -.506E-03   0.196E-14 0.545E-15 0.100E-14   -.297E-20 -.327E-20 -.446E-20
   -.245E-03 0.467E-03 -.428E-03   0.629E-15 -.282E-15 0.215E-15   -.129E-19 -.444E-20 0.150E-19

 POSITION                                       TOTAL-FORCE (eV/Angst)
      0.00000      0.00000      0.00000        -0.000000     -0.000000     -0.000000
      2.33365      1.65014      4.04199         0.000000      0.000000      0.000000
    total drift:                               -0.000245      0.000467     -0.000428

  FREE ENERGIE OF THE ION-ELECTRON SYSTEM (eV)
  free  energy   TOTEN  =       -11.69166576 eV

  energy  without entropy=      -11.69166576  energy(sigma->0) =      -11.69166576

 stress matrix after NEB project (eV)
      0.00000      0.00000      0.00000
      0.00000      0.00000      0.00000
      0.00000      0.00000      0.00000
  FORCES: max atom, RMS     0.000000    0.000000
  FORCE total and by dimension    0.000000    0.000000
  Stress total and by dimension    0.000000    0.000000
 writing wavefunctions